

******************************************************************************
This program contains Ipopt, a library for large-scale nonlinear optimization.
 Ipopt is released as open source code under the Eclipse Public License (EPL).
         For more information visit https://github.com/coin-or/Ipopt
******************************************************************************

This is Ipopt version 3.14.11, running with linear solver MUMPS 5.5.1.

Number of nonzeros in equality constraint Jacobian...:        0
Number of nonzeros in inequality constraint Jacobian.:        6
Number of nonzeros in Lagrangian Hessian.............:        3

Total number of variables............................:        2
                     variables with only lower bounds:        0
                variables with lower and upper bounds:        2
                     variables with only upper bounds:        0
Total number of equality constraints.................:        0
Total number of inequality constraints...............:        3
        inequality constraints with only lower bounds:        1
   inequality constraints with lower and upper bounds:        0
        inequality constraints with only upper bounds:        2

iter    objective    inf_pr   inf_du lg(mu)  ||d||  lg(rg) alpha_du alpha_pr  ls
   0  1.3568563e+01 6.67e+00 8.88e-01  -1.0 0.00e+00    -  0.00e+00 0.00e+00   0
   1  6.7104974e+00 6.82e-02 6.25e-01  -1.0 4.07e+01    -  5.73e-01 1.00e+00f  1
   2  5.0702686e+00 0.00e+00 8.50e-01  -1.0 3.86e+01    -  5.11e-01 1.00e+00h  1
   3 -4.3732246e+00 0.00e+00 1.83e-01  -1.0 7.70e+01    -  4.72e-01 1.00e+00f  1
   4 -1.1998642e+01 0.00e+00 5.63e-02  -1.0 9.28e+01    -  9.23e-01 1.00e+00f  1
   5 -2.0656832e+01 0.00e+00 2.93e-01  -1.0 3.90e+02    -  8.10e-01 6.24e-01f  1
   6 -2.4992572e+01 0.00e+00 5.43e-01  -1.0 1.40e+02    -  1.00e+00 1.00e+00h  1
   7 -2.6525875e+01 0.00e+00 8.44e-01  -1.0 1.19e+02    -  1.00e+00 4.95e-01h  1
   8 -2.7941275e+01 0.00e+00 7.51e+00  -1.0 2.04e+02    -  1.00e+00 3.02e-01f  1
   9 -2.7318873e+01 0.00e+00 8.35e+01  -1.0 4.10e+02    -  1.00e+00 6.82e-02h  2
iter    objective    inf_pr   inf_du lg(mu)  ||d||  lg(rg) alpha_du alpha_pr  ls
  10 -2.8681965e+01 0.00e+00 1.49e+03  -1.0 1.07e+03    -  1.00e+00 5.90e-02f  1
  11 -2.6947745e+01 0.00e+00 9.46e+01  -1.0 1.59e+02    -  1.00e+00 5.00e-01h  2
  12 -2.8065325e+01 0.00e+00 2.71e+03  -1.0 3.24e+02    -  1.00e+00 1.28e-01F  1
  13 -2.7258829e+01 0.00e+00 5.24e+03  -1.0 2.90e+02    -  1.00e+00 1.25e-01h  4
  14 -2.7906082e+01 0.00e+00 9.41e+04  -1.0 7.35e+02    -  1.00e+00 3.93e-02f  2
  15 -2.7356799e+01 0.00e+00 9.65e+04  -1.0 3.94e+02    -  1.00e+00 6.25e-02h  5
  16 -2.7655925e+01 0.00e+00 2.58e+06  -1.0 1.28e+03    -  1.00e+00 1.04e-02f  3
  17 -2.7475975e+01 0.00e+00 4.05e+06  -1.0 9.65e+02    -  6.58e-01 8.32e-03h  7
  18 -2.7604405e+01 0.00e+00 2.69e+08  -1.0 1.65e+04    -  9.03e-02 3.47e-04f  3
  19 -2.7378764e+01 0.00e+00 2.86e+08  -1.0 1.38e+03    -  1.00e+00 7.23e-03h  8
iter    objective    inf_pr   inf_du lg(mu)  ||d||  lg(rg) alpha_du alpha_pr  ls
  20 -3.3083941e+01 0.00e+00 8.99e+08  -1.0 1.54e+03    -  9.22e-01 2.76e-01f  1
  21 -3.1055652e+01 0.00e+00 2.23e+08  -1.0 2.28e+02    -  1.00e+00 1.00e+00h  1
  22 -3.0551763e+01 0.00e+00 1.70e+08  -1.0 1.34e+02    -  1.00e+00 2.50e-01h  3
  23 -3.0489626e+01 0.00e+00 1.65e+08  -1.0 1.25e+02    -  1.00e+00 3.12e-02h  6
  24 -3.0458504e+01 0.00e+00 1.63e+08  -1.0 1.25e+02    -  1.00e+00 1.56e-02h  7
  25 -3.0454613e+01 0.00e+00 1.62e+08  -1.0 1.24e+02    -  1.00e+00 1.95e-03h 10
  26 -3.0452668e+01 0.00e+00 1.62e+08  -1.0 1.24e+02    -  1.00e+00 9.77e-04h 11
  27 -2.8125310e+01 0.00e+00 2.49e+07  -1.0 1.24e+02    -  1.00e+00 1.00e+00h  1
  28 -2.7411788e+01 0.00e+00 8.23e+08  -1.0 2.65e+02    -  1.00e+00 1.22e-01h  1
  29 -2.7592314e+01 0.00e+00 9.16e+10  -1.0 2.23e+03    -  5.89e-01 3.60e-03h  2
iter    objective    inf_pr   inf_du lg(mu)  ||d||  lg(rg) alpha_du alpha_pr  ls
  30 -2.7487031e+01 0.00e+00 1.59e+11  -1.0 1.54e+03    -  4.12e-01 3.04e-03h  8
  31r-2.7487031e+01 0.00e+00 1.00e+03   0.7 0.00e+00    -  0.00e+00 4.76e-07R  7
  32r 2.5239188e+01 0.00e+00 9.82e+02   0.7 8.50e+04    -  1.65e-01 1.68e-02f  1
  33r 2.5048809e+01 0.00e+00 9.52e+02   0.7 5.09e+03    -  3.24e-02 1.15e-03f  1
  34r 2.5091040e+01 0.00e+00 9.30e+02   0.7 1.65e+03    -  2.30e-02 1.07e-02f  1
  35r 2.3769273e+01 0.00e+00 8.20e+02   0.7 8.29e+02    -  9.79e-01 6.26e-02f  1
  36r-1.6844805e+00 0.00e+00 1.65e+02   0.7 9.30e+02    -  7.22e-02 1.00e+00f  1
  37r-1.3139778e+01 0.00e+00 5.61e+01   0.7 5.30e+02    -  6.98e-01 1.00e+00h  1
  38r-1.3042993e+01 0.00e+00 3.16e-01   0.0 1.89e+01    -  9.85e-01 1.00e+00f  1
  39 -1.3781555e+01 0.00e+00 5.79e-01  -1.0 2.38e+00    -  6.31e-01 1.00e+00f  1
iter    objective    inf_pr   inf_du lg(mu)  ||d||  lg(rg) alpha_du alpha_pr  ls
  40 -1.8637025e+01 0.00e+00 2.28e-01  -1.0 7.35e+01    -  5.50e-01 1.00e+00F  1
  41 -2.3554562e+01 0.00e+00 2.43e-01  -1.0 1.06e+02    -  7.12e-01 1.00e+00F  1
  42 -2.4436223e+01 0.00e+00 5.63e-01  -1.0 2.74e+02    -  5.92e-01 7.03e-02f  2
  43 -2.6026868e+01 0.00e+00 5.64e-01  -1.0 2.81e+01    -  9.78e-01 6.88e-01h  1
  44 -2.7411792e+01 0.00e+00 5.33e+00  -1.0 2.25e+02    -  1.00e+00 2.52e-01h  1
  45 -2.8242503e+01 0.00e+00 7.65e+02  -1.0 4.14e+01  -2.0 1.04e-02 1.00e+00f  1
  46 -2.8353856e+01 0.00e+00 1.28e+00  -1.0 6.43e+00    -  1.00e+00 1.00e+00h  1
  47 -2.8544512e+01 0.00e+00 1.06e-01  -1.0 7.16e+00  -2.5 8.35e-01 1.00e+00f  1
  48 -2.9200012e+01 0.00e+00 9.78e-02  -2.5 6.43e+02    -  1.35e-01 5.02e-02f  1
  49 -3.7314475e+01 0.00e+00 4.05e+00  -2.5 5.52e+02    -  8.10e-01 1.00e+00f  1
iter    objective    inf_pr   inf_du lg(mu)  ||d||  lg(rg) alpha_du alpha_pr  ls
  50 -3.9130423e+01 0.00e+00 8.44e-01  -2.5 1.12e+01  -3.0 7.28e-01 1.00e+00h  1
  51 -4.0209909e+01 0.00e+00 1.96e-02  -2.5 4.59e+01  -3.4 1.00e+00 1.00e+00h  1
  52 -5.7151251e+01 0.00e+00 4.01e-01  -2.5 6.45e+03    -  9.04e-02 1.78e-01f  1
  53 -5.7168983e+01 0.00e+00 4.23e-01  -2.5 4.22e+02    -  2.03e-01 6.67e-03h  1
  54 -5.8963611e+01 0.00e+00 3.36e-01  -2.5 4.49e+02    -  4.41e-03 6.51e-01h  1
  55 -5.8984335e+01 0.00e+00 4.12e-01  -2.5 1.43e+02    -  1.00e+00 2.12e-02h  1
  56 -5.9010354e+01 0.00e+00 2.95e-02  -2.5 3.13e+01    -  1.00e+00 9.30e-01h  1
  57 -5.9007475e+01 0.00e+00 1.51e-06  -2.5 1.73e+00    -  1.00e+00 1.00e+00h  1
  58 -5.9012810e+01 0.00e+00 3.61e-07  -3.8 8.46e-01    -  1.00e+00 1.00e+00f  1
  59 -5.9013120e+01 0.00e+00 1.19e-09  -5.7 5.03e-02    -  1.00e+00 1.00e+00h  1
iter    objective    inf_pr   inf_du lg(mu)  ||d||  lg(rg) alpha_du alpha_pr  ls
  60 -5.9013124e+01 0.00e+00 1.79e-13  -8.6 5.97e-04    -  1.00e+00 1.00e+00h  1

Number of Iterations....: 60

                                   (scaled)                 (unscaled)
Objective...............:  -5.9013124222282670e+01   -5.9013124222282670e+01
Dual infeasibility......:   1.7896795156957523e-13    1.7896795156957523e-13
Constraint violation....:   0.0000000000000000e+00    0.0000000000000000e+00
Variable bound violation:   7.4621544854380772e-07    7.4621544854380772e-07
Complementarity.........:   2.5128397084896690e-09    2.5128397084896690e-09
Overall NLP error.......:   2.5128397084896690e-09    2.5128397084896690e-09


Number of objective function evaluations             = 158
Number of objective gradient evaluations             = 55
Number of equality constraint evaluations            = 0
Number of inequality constraint evaluations          = 158
Number of equality constraint Jacobian evaluations   = 0
Number of inequality constraint Jacobian evaluations = 62
Number of Lagrangian Hessian evaluations             = 60
Total seconds in IPOPT                               = 0.038

EXIT: Optimal Solution Found.
 
Ipopt 3.14.11: Optimal Solution Found
